(declare-sort $$unsorted 0)
(declare-fun tptp.op ($$unsorted $$unsorted) $$unsorted)
(assert (forall ((X0 $$unsorted) (X1 $$unsorted) (X2 $$unsorted) (X3 $$unsorted)) (= X0 (tptp.op X1 (tptp.op (tptp.op (tptp.op X2 X3) X1) X0)))))
(assert (not (forall ((X0 $$unsorted) (X1 $$unsorted) (X2 $$unsorted) (X3 $$unsorted)) (= X0 (tptp.op X1 (tptp.op (tptp.op X2 X1) X0))))))
(set-info :filename Equation1405_implies_Equation138)
(check-sat-assuming ( true ))
